ExperimentData/Eixample/Data/eixample9.lp
Maximize

0.90000000 p_1 + 0.04451360 p_1 + 0.89648438 p_2 + 0.04451360 p_2 + 0.85525568 p_3 + 0.07080507 p_3 + 0.80411932 p_4 + 0.04451360 p_4 + 0.74531250 p_5 + 0.04956765 p_5 + 0.69034091 p_6 + 0.10000000 p_6 + 0.67244318 p_7 + 0.04451360 p_7 + 0.62674006 p_8 + 0.04451360 p_8 + 0.56218040 p_9 + 0.10000000 p_9 + 0.55546875 p_10 + 0.04451360 p_10 + 0.53916903 p_11 + 0.04451360 p_11 + 0.50625000 p_12 + 0.07370854 p_12 + 0.49602273 p_13 + 0.04451360 p_13 + 0.44552557 p_14 + 0.04451360 p_14 + 0.42858665 p_15 + 0.04451360 p_15 + 0.39119318 p_16 + 0.02919493 p_16 + 0.37425426 p_17 + 0.04451360 p_17 + 0.36530540 p_18 + 0.07370854 p_18 + 0.33877841 p_19 + 0.04451360 p_19

Subject To

875000 p_1 + 300000 p_2 + 200000 p_3 + 380000 p_4 + 600000 p_5 + 1500000 p_6 + 250000 p_7 + 1500000 p_8 + 800000 p_9 + 120000 p_10 + 270000 p_11 + 500000 p_12 + 170000 p_13 + 100000 p_14 + 155000 p_15 + 225000 p_16 + 250000 p_17 + 225000 p_18 + 300000 p_19 <= 3000000

Binaries

p_1
p_2
p_3
p_4
p_5
p_6
p_7
p_8
p_9
p_10
p_11
p_12
p_13
p_14
p_15
p_16
p_17
p_18
p_19

End