ExperimentData/Eixample/Data/eixample9.sol
<?xml version = "1.0" encoding="UTF-8" standalone="yes"?>
<CPLEXSolution version="1.2">
 <header
   problemName="C:\Users\eugen\OneDrive\Escritorio\marcserr-decidimoptim-v10-omega/ExperimentData/eixample/Data/eixample9.lp"
   solutionName="incumbent"
   solutionIndex="-1"
   objectiveValue="7.7814510800000001"
   solutionTypeValue="3"
   solutionTypeString="primal"
   solutionStatusValue="101"
   solutionStatusString="integer optimal solution"
   solutionMethodString="mip"
   primalFeasible="1"
   dualFeasible="1"
   MIPNodes="0"
   MIPIterations="3"
   writeLevel="1"/>
 <quality
   epInt="1.0000000000000001e-05"
   epRHS="9.9999999999999995e-07"
   maxIntInfeas="0"
   maxPrimalInfeas="0"
   maxX="1"
   maxSlack="55000"/>
 <linearConstraints>
  <constraint name="c1" index="0" slack="55000"/>
 </linearConstraints>
 <variables>
  <variable name="p_1" index="0" value="0"/>
  <variable name="p_2" index="1" value="1"/>
  <variable name="p_3" index="2" value="1"/>
  <variable name="p_4" index="3" value="1"/>
  <variable name="p_5" index="4" value="-0"/>
  <variable name="p_6" index="5" value="0"/>
  <variable name="p_7" index="6" value="1"/>
  <variable name="p_8" index="7" value="0"/>
  <variable name="p_9" index="8" value="0"/>
  <variable name="p_10" index="9" value="1"/>
  <variable name="p_11" index="10" value="1"/>
  <variable name="p_12" index="11" value="-0"/>
  <variable name="p_13" index="12" value="1"/>
  <variable name="p_14" index="13" value="1"/>
  <variable name="p_15" index="14" value="1"/>
  <variable name="p_16" index="15" value="1"/>
  <variable name="p_17" index="16" value="1"/>
  <variable name="p_18" index="17" value="1"/>
  <variable name="p_19" index="18" value="1"/>
 </variables>
 <objectiveValues>
  <objective index="0" name="obj1" value="7.781451080000001"/>
 </objectiveValues>
</CPLEXSolution>
